
Gurobi 9.5.2 (mac64[arm]) logging started Wed Apr 19 18:23:24 2023

Set parameter LogFile to value "Java/output/iterative_model/scenario_seed_0_nJob_20_machineCount_1/mip_increment_1/log.txt"
Gurobi Optimizer version 9.5.2 build v9.5.2rc0 (mac64[arm])
Thread count: 8 physical cores, 8 logical processors, using up to 8 threads
Optimize a model with 1228 rows, 3980 columns and 54179 nonzeros
Model fingerprint: 0xe9b12bfc
Variable types: 0 continuous, 3980 integer (3980 binary)
Coefficient statistics:
  Matrix range     [1e+00, 2e+02]
  Objective range  [6e+01, 4e+06]
  Bounds range     [1e+00, 1e+00]
  RHS range        [1e+00, 1e+00]
Found heuristic solution: objective 1.427227e+07
Presolve removed 348 rows and 1014 columns
Presolve time: 0.09s
Presolved: 880 rows, 2966 columns, 39878 nonzeros
Variable types: 0 continuous, 2966 integer (2962 binary)
Found heuristic solution: objective 1.170349e+07

Root relaxation: objective 2.095055e+04, 406 iterations, 0.01 seconds (0.02 work units)

    Nodes    |    Current Node    |     Objective Bounds      |     Work
 Expl Unexpl |  Obj  Depth IntInf | Incumbent    BestBd   Gap | It/Node Time

     0     0 20950.5491    0   52 1.1703e+07 20950.5491   100%     -    0s
H    0     0                    172672.00000 20950.5491  87.9%     -    0s
     0     0 25173.6627    0   91 172672.000 25173.6627  85.4%     -    0s
     0     0 25173.6627    0   52 172672.000 25173.6627  85.4%     -    0s
H    0     0                    159520.00000 25173.6627  84.2%     -    0s
     0     0 32339.8285    0   98 159520.000 32339.8285  79.7%     -    0s
     0     0 34228.9598    0   91 159520.000 34228.9598  78.5%     -    0s
     0     0 38082.3984    0  100 159520.000 38082.3984  76.1%     -    0s
     0     0 46616.6942    0  104 159520.000 46616.6942  70.8%     -    0s
     0     0 46688.3265    0  104 159520.000 46688.3265  70.7%     -    0s
     0     0 62651.6781    0  121 159520.000 62651.6781  60.7%     -    0s
H    0     0                    158368.00000 62651.6781  60.4%     -    0s
     0     0 63743.0503    0  126 158368.000 63743.0503  59.8%     -    0s
     0     0 64182.5350    0  122 158368.000 64182.5350  59.5%     -    0s
     0     0 64254.1152    0  127 158368.000 64254.1152  59.4%     -    0s
     0     0 71371.1235    0  114 158368.000 71371.1235  54.9%     -    0s
H    0     0                    154512.00000 71371.1235  53.8%     -    0s
     0     0 74688.9868    0  130 154512.000 74688.9868  51.7%     -    0s
     0     0 75022.1872    0  132 154512.000 75022.1872  51.4%     -    0s
     0     0 75065.3064    0  134 154512.000 75065.3064  51.4%     -    0s
     0     0 75065.3064    0  132 154512.000 75065.3064  51.4%     -    0s
     0     0 78519.4463    0  125 154512.000 78519.4463  49.2%     -    0s
     0     0 79381.0226    0  121 154512.000 79381.0226  48.6%     -    0s
     0     0 81061.4887    0  127 154512.000 81061.4887  47.5%     -    0s
     0     0 81116.6980    0  126 154512.000 81116.6980  47.5%     -    0s
     0     0 81125.5944    0  132 154512.000 81125.5944  47.5%     -    0s
     0     0 83479.7865    0  147 154512.000 83479.7865  46.0%     -    0s
     0     0 83812.3223    0  143 154512.000 83812.3223  45.8%     -    0s
     0     0 83825.3852    0  147 154512.000 83825.3852  45.7%     -    0s
     0     0 86299.2257    0  133 154512.000 86299.2257  44.1%     -    0s
     0     0 86988.9474    0  133 154512.000 86988.9474  43.7%     -    0s
     0     0 87027.3258    0  129 154512.000 87027.3258  43.7%     -    0s
     0     0 89118.3532    0  110 154512.000 89118.3532  42.3%     -    0s
     0     0 90314.3424    0  132 154512.000 90314.3424  41.5%     -    0s
     0     0 90382.2867    0  142 154512.000 90382.2867  41.5%     -    0s
     0     0 90447.7687    0  140 154512.000 90447.7687  41.5%     -    0s
     0     0 90451.9010    0  133 154512.000 90451.9010  41.5%     -    0s
     0     0 90994.5582    0  149 154512.000 90994.5582  41.1%     -    0s
H    0     0                    147936.00000 90994.5582  38.5%     -    0s
     0     0 91045.4465    0  146 147936.000 91045.4465  38.5%     -    0s
     0     0 91700.6398    0  136 147936.000 91700.6398  38.0%     -    0s
     0     0 91859.2560    0  125 147936.000 91859.2560  37.9%     -    0s
     0     0 91859.2560    0  126 147936.000 91859.2560  37.9%     -    0s
     0     0 92488.7251    0  144 147936.000 92488.7251  37.5%     -    0s
     0     0 92696.9147    0  158 147936.000 92696.9147  37.3%     -    0s
     0     0 92775.4225    0  156 147936.000 92775.4225  37.3%     -    0s
     0     0 92800.6756    0  153 147936.000 92800.6756  37.3%     -    0s
     0     0 93302.5793    0  148 147936.000 93302.5793  36.9%     -    0s
     0     0 93519.5008    0  148 147936.000 93519.5008  36.8%     -    0s
     0     0 93587.0185    0  152 147936.000 93587.0185  36.7%     -    0s
     0     0 93597.9509    0  157 147936.000 93597.9509  36.7%     -    0s
     0     0 93597.9509    0  159 147936.000 93597.9509  36.7%     -    0s
     0     0 93597.9509    0  151 147936.000 93597.9509  36.7%     -    0s
H    0     0                    138768.00000 93597.9509  32.6%     -    0s
     0     2 93746.8526    0  151 138768.000 93746.8526  32.4%     -    0s
*   11    10               3    101232.00000 101232.000  0.00%   132    0s

Cutting planes:
  Cover: 1
  Clique: 28
  MIR: 31
  StrongCG: 10
  GUB cover: 39
  Zero half: 7
  RLT: 1

Explored 15 nodes (6865 simplex iterations) in 0.76 seconds (1.27 work units)
Thread count was 8 (of 8 available processors)

Solution count 9: 101232 138768 147936 ... 1.42723e+07

Optimal solution found (tolerance 1.00e-04)
Best objective 1.012320000000e+05, best bound 1.012320000000e+05, gap 0.0000%

Gurobi 9.5.2 (mac64[arm]) logging started Wed Apr 19 18:23:25 2023

Set parameter LogFile to value "Java/output/iterative_model/scenario_seed_0_nJob_20_machineCount_1/mip_increment_1/log.txt"
Gurobi Optimizer version 9.5.2 build v9.5.2rc0 (mac64[arm])
Thread count: 8 physical cores, 8 logical processors, using up to 8 threads
Optimize a model with 1230 rows, 3023 columns and 37857 nonzeros
Model fingerprint: 0xc40b00ca
Variable types: 0 continuous, 3023 integer (3023 binary)
Coefficient statistics:
  Matrix range     [1e+00, 2e+02]
  Objective range  [3e+02, 6e+05]
  Bounds range     [1e+00, 1e+00]
  RHS range        [1e+00, 1e+00]
Found heuristic solution: objective 758620.00000
Presolve removed 453 rows and 456 columns
Presolve time: 0.05s
Presolved: 777 rows, 2567 columns, 31027 nonzeros
Variable types: 0 continuous, 2567 integer (2561 binary)
Found heuristic solution: objective 701904.00000

Root relaxation: objective 6.381998e+04, 359 iterations, 0.01 seconds (0.01 work units)

    Nodes    |    Current Node    |     Objective Bounds      |     Work
 Expl Unexpl |  Obj  Depth IntInf | Incumbent    BestBd   Gap | It/Node Time

     0     0 63819.9827    0   42 701904.000 63819.9827  90.9%     -    0s
H    0     0                    337640.00000 63819.9827  81.1%     -    0s
H    0     0                    89604.000000 63819.9827  28.8%     -    0s
     0     0 65208.0000    0   35 89604.0000 65208.0000  27.2%     -    0s
     0     0 65208.0000    0   35 89604.0000 65208.0000  27.2%     -    0s
     0     0 65388.0000    0   36 89604.0000 65388.0000  27.0%     -    0s
     0     0 65388.0000    0   31 89604.0000 65388.0000  27.0%     -    0s
H    0     0                    74444.000000 65388.0000  12.2%     -    0s
H    0     0                    71280.000000 65388.0000  8.27%     -    0s
     0     0 65388.0000    0   38 71280.0000 65388.0000  8.27%     -    0s
H    0     0                    68552.000000 65388.0000  4.62%     -    0s
     0     0 65388.0000    0   34 68552.0000 65388.0000  4.62%     -    0s
     0     0 65388.0000    0   35 68552.0000 65388.0000  4.62%     -    0s
     0     0 65388.8478    0   16 68552.0000 65388.8478  4.61%     -    0s
     0     0 65388.8478    0   10 68552.0000 65388.8478  4.61%     -    0s
     0     0 65394.2857    0   14 68552.0000 65394.2857  4.61%     -    0s
     0     0 65394.7429    0   17 68552.0000 65394.7429  4.61%     -    0s
H    0     0                    66036.000000 65394.7429  0.97%     -    0s
H    0     0                    65432.000000 65394.7429  0.06%     -    0s
     0     0     cutoff    0      65432.0000 65432.0000  0.00%     -    0s

Cutting planes:
  Gomory: 10
  Cover: 4
  Implied bound: 1
  Clique: 1
  MIR: 7
  StrongCG: 7
  GUB cover: 7
  Zero half: 2
  RLT: 2
  Relax-and-lift: 2

Explored 1 nodes (1917 simplex iterations) in 0.24 seconds (0.41 work units)
Thread count was 8 (of 8 available processors)

Solution count 10: 65432 66036 68552 ... 337640

Optimal solution found (tolerance 1.00e-04)
Best objective 6.543200000000e+04, best bound 6.543200000000e+04, gap 0.0000%

Gurobi 9.5.2 (mac64[arm]) logging started Wed Apr 19 18:23:25 2023

Set parameter LogFile to value "Java/output/iterative_model/scenario_seed_0_nJob_20_machineCount_1/mip_increment_1/log.txt"
Gurobi Optimizer version 9.5.2 build v9.5.2rc0 (mac64[arm])
Thread count: 8 physical cores, 8 logical processors, using up to 8 threads
Optimize a model with 1230 rows, 2238 columns and 27206 nonzeros
Model fingerprint: 0x71f67723
Variable types: 0 continuous, 2238 integer (2238 binary)
Coefficient statistics:
  Matrix range     [1e+00, 2e+02]
  Objective range  [1e+02, 5e+04]
  Bounds range     [1e+00, 1e+00]
  RHS range        [1e+00, 1e+00]
Found heuristic solution: objective 115264.00000
Presolve removed 755 rows and 497 columns
Presolve time: 0.04s
Presolved: 475 rows, 1741 columns, 19891 nonzeros
Variable types: 0 continuous, 1741 integer (1741 binary)
Found heuristic solution: objective 74905.000000

Root relaxation: objective 2.910111e+03, 398 iterations, 0.01 seconds (0.01 work units)

    Nodes    |    Current Node    |     Objective Bounds      |     Work
 Expl Unexpl |  Obj  Depth IntInf | Incumbent    BestBd   Gap | It/Node Time

     0     0 2910.11147    0   26 74905.0000 2910.11147  96.1%     -    0s
H    0     0                    8529.0000000 2910.11147  65.9%     -    0s
     0     0 2913.00000    0   27 8529.00000 2913.00000  65.8%     -    0s
H    0     0                    3733.0000000 2913.00000  22.0%     -    0s
H    0     0                    2943.0000000 2913.00000  1.02%     -    0s
     0     0 2915.63662    0   23 2943.00000 2915.63662  0.93%     -    0s
H    0     0                    2933.0000000 2915.63662  0.59%     -    0s
     0     0     cutoff    0      2933.00000 2933.00000  0.00%     -    0s

Explored 1 nodes (985 simplex iterations) in 0.12 seconds (0.20 work units)
Thread count was 8 (of 8 available processors)

Solution count 7: 2933 2940 2943 ... 115264

Optimal solution found (tolerance 1.00e-04)
Best objective 2.933000000000e+03, best bound 2.933000000000e+03, gap 0.0000%

Gurobi 9.5.2 (mac64[arm]) logging started Wed Apr 19 18:23:25 2023

Set parameter LogFile to value "Java/output/iterative_model/scenario_seed_0_nJob_20_machineCount_1/mip_increment_1/log.txt"
Gurobi Optimizer version 9.5.2 build v9.5.2rc0 (mac64[arm])
Thread count: 8 physical cores, 8 logical processors, using up to 8 threads
Optimize a model with 1300 rows, 12537 columns and 160150 nonzeros
Model fingerprint: 0x3caaaac4
Variable types: 0 continuous, 12537 integer (12537 binary)
Coefficient statistics:
  Matrix range     [1e+00, 2e+02]
  Objective range  [1e+00, 4e+06]
  Bounds range     [1e+00, 1e+00]
  RHS range        [1e+00, 1e+00]

Warning: Completing partial solution with 12474 unfixed non-continuous variables out of 12537
User MIP start produced solution with objective 162686 (0.01s)
Loaded user MIP start with objective 162686

Presolve removed 106 rows and 1853 columns
Presolve time: 0.17s
Presolved: 1194 rows, 10684 columns, 134081 nonzeros
Variable types: 0 continuous, 10684 integer (10668 binary)

Root relaxation: objective 3.432241e+04, 9325 iterations, 0.56 seconds (1.36 work units)

    Nodes    |    Current Node    |     Objective Bounds      |     Work
 Expl Unexpl |  Obj  Depth IntInf | Incumbent    BestBd   Gap | It/Node Time

     0     0 34322.4149    0  215 162686.000 34322.4149  78.9%     -    0s
     0     0 37715.5667    0  324 162686.000 37715.5667  76.8%     -    1s
     0     0 43535.4883    0  312 162686.000 43535.4883  73.2%     -    1s
     0     0 43535.6613    0  306 162686.000 43535.6613  73.2%     -    2s
     0     0 63282.9579    0  330 162686.000 63282.9579  61.1%     -    3s
     0     0 64901.4612    0  367 162686.000 64901.4612  60.1%     -    3s
     0     0 64901.4623    0  361 162686.000 64901.4623  60.1%     -    3s
     0     0 76143.8393    0  362 162686.000 76143.8393  53.2%     -    4s
     0     0 76728.9209    0  363 162686.000 76728.9209  52.8%     -    5s
     0     0 76811.7738    0  390 162686.000 76811.7738  52.8%     -    5s
     0     0 76814.4333    0  398 162686.000 76814.4333  52.8%     -    5s
     0     0 84051.1818    0  397 162686.000 84051.1818  48.3%     -    6s
     0     0 84051.1818    0  212 162686.000 84051.1818  48.3%     -    7s
     0     0 84051.1818    0  349 162686.000 84051.1818  48.3%     -    8s
     0     0 85059.6775    0  393 162686.000 85059.6775  47.7%     -    8s
     0     0 86076.8632    0  421 162686.000 86076.8632  47.1%     -    8s
     0     0 86083.0636    0  432 162686.000 86083.0636  47.1%     -    8s
     0     0 92609.5299    0  387 162686.000 92609.5299  43.1%     -    9s
     0     0 95018.5070    0  421 162686.000 95018.5070  41.6%     -    9s
     0     0 95634.6983    0  417 162686.000 95634.6983  41.2%     -    9s
     0     0 95702.6617    0  448 162686.000 95702.6617  41.2%     -   10s
     0     0 95719.9597    0  419 162686.000 95719.9597  41.2%     -   10s
     0     0 109429.232    0  477 162686.000 109429.232  32.7%     -   11s
     0     0 112056.708    0  469 162686.000 112056.708  31.1%     -   11s
     0     0 112295.063    0  489 162686.000 112295.063  31.0%     -   11s
     0     0 112534.990    0  487 162686.000 112534.990  30.8%     -   12s
     0     0 112539.559    0  492 162686.000 112539.559  30.8%     -   12s
     0     0 127996.216    0  507 162686.000 127996.216  21.3%     -   14s
     0     0 132664.366    0  553 162686.000 132664.366  18.5%     -   15s
     0     0 133009.808    0  573 162686.000 133009.808  18.2%     -   15s
     0     0 133284.068    0  549 162686.000 133284.068  18.1%     -   15s
     0     0 133386.884    0  566 162686.000 133386.884  18.0%     -   15s
     0     0 133386.988    0  572 162686.000 133386.988  18.0%     -   15s
     0     0 139382.245    0  526 162686.000 139382.245  14.3%     -   16s
     0     0 140013.637    0  553 162686.000 140013.637  13.9%     -   17s
     0     0 140095.404    0  506 162686.000 140095.404  13.9%     -   17s
     0     0 140101.044    0  519 162686.000 140101.044  13.9%     -   17s
     0     0 141107.689    0  551 162686.000 141107.689  13.3%     -   17s
     0     0 141414.302    0  606 162686.000 141414.302  13.1%     -   18s
     0     0 141420.161    0  612 162686.000 141420.161  13.1%     -   18s
     0     0 142302.734    0  587 162686.000 142302.734  12.5%     -   18s
     0     0 142479.409    0  589 162686.000 142479.409  12.4%     -   19s
     0     0 142576.739    0  571 162686.000 142576.739  12.4%     -   19s
     0     0 142593.493    0  585 162686.000 142593.493  12.4%     -   19s
     0     0 142928.779    0  565 162686.000 142928.779  12.1%     -   19s
     0     0 142947.434    0  540 162686.000 142947.434  12.1%     -   20s
     0     0 142958.068    0  233 162686.000 142958.068  12.1%     -   21s
     0     0 142958.068    0  425 162686.000 142958.068  12.1%     -   22s
     0     0 142958.068    0  408 162686.000 142958.068  12.1%     -   22s
     0     0 142958.068    0  484 162686.000 142958.068  12.1%     -   22s
     0     0 144039.663    0  512 162686.000 144039.663  11.5%     -   23s
     0     0 144373.944    0  527 162686.000 144373.944  11.3%     -   23s
     0     0 144404.883    0  528 162686.000 144404.883  11.2%     -   23s
     0     0 144406.066    0  526 162686.000 144406.066  11.2%     -   23s
     0     0 144935.354    0  577 162686.000 144935.354  10.9%     -   23s
     0     0 144988.232    0  562 162686.000 144988.232  10.9%     -   24s
     0     0 145712.481    0  605 162686.000 145712.481  10.4%     -   25s
     0     0 145852.397    0  594 162686.000 145852.397  10.3%     -   25s
     0     0 145919.359    0  595 162686.000 145919.359  10.3%     -   25s
     0     0 146642.574    0  580 162686.000 146642.574  9.86%     -   26s
     0     0 147950.334    0  523 162686.000 147950.334  9.06%     -   26s
     0     0 148143.053    0  585 162686.000 148143.053  8.94%     -   26s
     0     0 148188.124    0  573 162686.000 148188.124  8.91%     -   26s
     0     0 148924.971    0  572 162686.000 148924.971  8.46%     -   27s
     0     0 149136.444    0  587 162686.000 149136.444  8.33%     -   27s
     0     0 149205.690    0  607 162686.000 149205.690  8.29%     -   27s
     0     0 149390.403    0  611 162686.000 149390.403  8.17%     -   27s
     0     0 149840.106    0  587 162686.000 149840.106  7.90%     -   28s
     0     2 149840.106    0  587 162686.000 149840.106  7.90%     -   28s
     7     4 161072.011    3  464 162686.000 150814.999  7.30%  2500   30s

Cutting planes:
  Cover: 8
  Clique: 163
  MIR: 118
  StrongCG: 45
  GUB cover: 143
  Zero half: 9
  Mod-K: 1
  RLT: 15
  Relax-and-lift: 1

Explored 175 nodes (297816 simplex iterations) in 32.85 seconds (77.63 work units)
Thread count was 8 (of 8 available processors)

Solution count 1: 162686 

Optimal solution found (tolerance 1.00e-04)
Best objective 1.626860000000e+05, best bound 1.626860000000e+05, gap 0.0000%
